atom_style      granular
atom_modify     map array
communicate     single vel yes

boundary        m m m
newton          off

units           si

region          reg block -0.03 0.03 -0.03 0.03 0. 1.0 units box
create_box      2 reg        

neighbor        0.001 bin
neigh_modify    delay 0 

# Material properties required for granular pair styles

fix         m1 all property/global kn peratomtypepair 2 10000. 0.9 0.9 10000
fix         m2 all property/global kt peratomtypepair 2 10000. 0.9 0.9 10000  
fix         m3 all property/global gamman_abs peratomtypepair 2 0.0041 0.0000012 0.0000012 0.000000036
fix         m4 all property/global gammat_abs peratomtypepair 2 0.0041 0.0000012 0.0000012 0.000000036
fix         m5 all property/global coefficientFriction peratomtypepair 1 0.3

# pair style
pair_style hybrid gran model hooke/stiffness tangential history absolute_damping on limitForce on hydro 5e-10
pair_coeff * * gran  
pair_coeff 1 2 hydro 1e-6 6.26e2 0.5e-9

# timestep, gravity
timestep    0.000001
fix         gravi all gravity 9.81 vector 0.0 0.0 -1.0

# walls
fix     cylinder all mesh/surface file meshes/cylinder.stl type 1
fix     cylwalls all wall/gran model hooke/stiffness tangential history mesh n_meshes 1 meshes cylinder absolute_damping on 

# particle distributions and insertion

create_atoms 2 single 0.0 0.0 0.1 units box
create_atoms 1 single 0.0 0.0 0.1006 units box
set atom 1 diameter 0.001 density 1.2 vx 0 vy 0 vz 0
set atom 2 diameter 0.0001 density 1400 vx 0 vy 0 vz 0

# apply nve integration to all particles that are inserted as single particles
fix     integr all nve/sphere

# screen output
compute         rke all erotate/sphere
thermo_style    custom step atoms ke c_rke vol
thermo          1000
thermo_modify   lost ignore norm no
compute_modify  thermo_temp dynamic yes

# insert the first particles so that dump is not empty
run         1
dump        dmp all custom 10000 post/dump*.liggghts_init id type x y z vx vy vz fx fy fz radius

run         1 upto
write_restart   post/restart/liggghts.restart
