atom_style      granular
atom_modify     map array sort 0 0
communicate     single vel yes

boundary        m m m
newton          off

units           si

# read the restart file
read_restart    ../DEM/post/restart/liggghts.restart

neighbor        0.001 bin
neigh_modify    delay 0

# Material properties required for granular pair styles

fix         m1 all property/global kn peratomtypepair 2 10000. 0.9 0.9 10000
fix         m2 all property/global kt peratomtypepair 2 10000. 0.9 0.9 10000  
fix         m3 all property/global gamman_abs peratomtypepair 2 0.0041 0.0000012 0.0000012 0.000000036
fix         m4 all property/global gammat_abs peratomtypepair 2 0.0041 0.0000012 0.0000012 0.000000036
fix         m5 all property/global coefficientFriction peratomtypepair 2 0.3 0.3 0.3 0.3

# pair style
pair_style hybrid gran model hooke/stiffness tangential history absolute_damping on limitForce on hydro 2e-7
pair_coeff * * gran
pair_coeff 1 2 hydro 1e-6 6.26e2 0.5e-9

# timestep, gravity
timestep    0.000001
fix         gravi all gravity 9.81 vector 0.0 0.0 -1.0

# walls
fix         cylinder all mesh/surface file meshes/cylinder.stl type 1
fix         cylwalls all wall/gran model hooke/stiffness tangential history mesh n_meshes 1 meshes cylinder absolute_damping on 

# track the tracer particle
#variable vMag atom sqrt(vx^2+vy^2+vz^2)

variable        vx1 equal vx[1]
variable        vy1 equal vy[1]
variable        vz1 equal vz[1]
variable        vx2 equal vx[2]
variable        vy2 equal vy[2]
variable        vz2 equal vz[2]
variable        x1 equal x[1]
variable        y1 equal y[1]
variable        z1 equal z[1]
variable        x2 equal x[2]
variable        y2 equal y[2]
variable        z2 equal z[2]
variable        time equal step*dt

fix             extra1 all print 1 "${time} ${vx1} ${vy1} ${vz1}" file ../DEM/post/velocity_particle_1.txt title "%" screen no
fix             extra2 all print 1 "${time} ${vx2} ${vy2} ${vz2}" file ../DEM/post/velocity_bubble_2.txt title "%" screen no
fix             extra3 all print 1 "${time} ${x1}  ${y1}  ${z1}"  file ../DEM/post/position_particle_1.txt title "%" screen no
fix 		extra4 all print 1 "${time} ${x2} ${y2} ${z2}" file ../DEM/post/position_bubble_2.txt title "%" screen no

# cfd coupling
fix         cfd all couple/cfd couple_every 10 mpi
fix         cfd2 all couple/cfd/force/implicit
# fix         cfd2 all couple/cfd/force/implicit CrankNicolson 0.5 
# fix         cfd2 all couple/cfd/force

# apply nve integration to all particles that are inserted as single particles
fix         integr all nve/sphere 

# fluid force
compute     dragtotal all reduce sum f_dragforce[1] f_dragforce[2] f_dragforce[3]

# output
dump            dmp1 all custom 1000 ../DEM/post/dump*.liggghts_run id type x y z vx vy vz fx fy fz f_dragforce[1] f_dragforce[2] f_dragforce[3] radius 
# dump            dmp2 all local 10000 ../DEM/post/dump*.stress c_con[1]

run 0
